language Essence 1.3

letting class be
        function(1 --> 5, 2 --> 3, 3 --> 2, 4 --> 1, 5 --> 7, 6 --> 3, 7 --> 2, 8 --> 8, 9 --> 2, 10 --> 5, 11 --> 8,
                 12 --> 6, 13 --> 8, 14 --> 5, 15 --> 1, 16 --> 7, 17 --> 8, 18 --> 2, 19 --> 2, 20 --> 4, 21 --> 1,
                 22 --> 3, 23 --> 5, 24 --> 1, 25 --> 1, 26 --> 6)
letting deck_length be 100
letting deck_width be 26
letting length be
        function(1 --> 1, 2 --> 1, 3 --> 1, 4 --> 2, 5 --> 10, 6 --> 1, 7 --> 1, 8 --> 1, 9 --> 11, 10 --> 1, 11 --> 1,
                 12 --> 1, 13 --> 1, 14 --> 1, 15 --> 19, 16 --> 1, 17 --> 1, 18 --> 2, 19 --> 1, 20 --> 1, 21 --> 1,
                 22 --> 7, 23 --> 2, 24 --> 1, 25 --> 2, 26 --> 1)
letting n_classes be 8
letting n_containers be 26
letting separation be function()
letting width be
        function(1 --> 12, 2 --> 11, 3 --> 7, 4 --> 1, 5 --> 23, 6 --> 19, 7 --> 18, 8 --> 1, 9 --> 24, 10 --> 20,
                 11 --> 8, 12 --> 21, 13 --> 13, 14 --> 16, 15 --> 22, 16 --> 4, 17 --> 8, 18 --> 13, 19 --> 18,
                 20 --> 5, 21 --> 14, 22 --> 23, 23 --> 16, 24 --> 8, 25 --> 1, 26 --> 14)
